p tw 26 39
1 7
1 23
1 25
2 10
2 12
2 18
3 9
3 13
3 25
4 8
4 9
4 14
5 18
5 20
5 26
6 12
6 15
6 22
7 13
7 15
8 13
8 24
9 10
10 25
11 15
11 16
11 17
12 19
14 21
14 23
16 19
16 21
17 21
17 24
18 20
19 22
20 26
22 24
23 26
